[[34, 44, 35, 36, 49, 32, 22, 31, 18, 3, 17, 21, 42, 7, 2, 30, 23, 20, 50, 29, 16, 46, 28, 27, 26, 47], [14, 13, 52, 11, 51, 12, 33, 43, 10, 9, 8, 41, 19, 45, 15, 6, 4, 25, 5, 24, 48, 38, 37, 39, 40]]